mapa = [|
         9,9,9,9,9,9,9,9|
         9,0,0,0,0,0,0,9|
         9,0,0,0,0,0,4,9|
         9,0,0,3,0,0,0,9|
         9,0,0,0,0,0,0,9|
         9,9,9,9,9,9,9,9|];
dimx = 6;
dimy = 8;
filav = 5;
colav = 6;
